BEGIN IONS
TITLE=Lib_Compound_A
PEPMASS=150.0558
CHARGE=1+
NAME=Compound A
INCHIKEY=ABCDEFGHIJKLMN-OPQRSTUVWX-A
SMILES=CCCC(=O)O
50.0234 95
75.0451 240
100.0623 490
150.0558 980
END IONS

BEGIN IONS
TITLE=Lib_Compound_B
PEPMASS=250.1234
CHARGE=1+
NAME=Compound B
INCHIKEY=BBBBBBBBBBBBBB-CCCCCCCCCC-D
SMILES=C1=CC=CC=C1
80.0456 195
120.0789 340
250.1234 890
END IONS

BEGIN IONS
TITLE=Lib_Compound_C_Neg
PEPMASS=200.0876
CHARGE=1-
NAME=Compound C
INCHIKEY=CCCCCCCCCCCCCC-DDDDDDDDDD-E
SMILES=CC(C)CC(=O)O
45.0234 115
90.0567 275
200.0876 840
END IONS

